CMD:
./solvers/bin/cadical --plain --no-reduce -t 1600 ./data/cnfs//6s277rb292/6s277rb292.90.cnf

c --- [ banner ] -------------------------------------------------------------
c 
c CaDiCaL SAT Solver
c Copyright (c) 2016-2024
c A. Biere, M. Fleury, N. Froleyks, K. Fazekas, F. Pollitt, T. Faller
c JKU Linz, University of Freiburg, TU Wien
c 
c Version 2.1.3 5296d3d2a9bf48c154ab2acb5e44625776d821bf
c g++ (Gentoo 12.3.1_p20230526 p2) 12.3.1 20230526 -Wall -Wextra -O3 -DNDEBUG
c Sat Aug 9 07:26:21 PDT 2025 Linux cedar2.int.cedar.computecanada.ca 5.14.0-362.24.2.el9_3.x86_64 x86_64
c 
c --- [ limit ] --------------------------------------------------------------
c 
c setting time limit to 1600 seconds real time (due to '-t 1600')
c 
c --- [ parsing input ] ------------------------------------------------------
c 
c reading DIMACS file from './data/cnfs//6s277rb292/6s277rb292.90.cnf'
c opening file to read './data/cnfs//6s277rb292/6s277rb292.90.cnf'
c found 'p cnf 1429096 4226602' header
c parsed 4226602 clauses in 0.62 seconds process time
c 
c --- [ options ] ------------------------------------------------------------
c 
c   --compact=false                (different from default 'true')
c   --decompose=false              (different from default 'true')
c   --deduplicate=false            (different from default 'true')
c   --elim=false                   (different from default 'true')
c   --probe=false                  (different from default 'true')
c   --reduce=false                 (different from default 'true')
c   --subsume=false                (different from default 'true')
c   --ternary=false                (different from default 'true')
c   --transred=false               (different from default 'true')
c   --vivify=false                 (different from default 'true')
c 
c --- [ solving ] ------------------------------------------------------------
c 
c time measured in process time since initialization
c 
c  seconds   reductions  redundant   irredundant
c          MB    restarts       trail        variables
c           level   conflicts       glue           remaining
c 
c *  0.62 536  0 0   0    0    0  0% 0 2949198 758766 53%
c {  0.89 546  0 0   0    0    0  0% 0 2949198 758766 53%
c i  1.44 547 6471 0  14  222  151 69% 5 2949198 758755 53%
c i  1.48 547 5946 0  18  238  164 67% 6 2949198 758681 53%
c i  1.55 547 5385 0  21  256  174 66% 6 2949198 758596 53%
c i  1.76 547 4136 0  33  315  225 64% 6 2949198 758511 53%
c i  1.77 547 4071 0  33  319  227 64% 6 2949198 758500 53%
c i  1.79 547 3789 0  33  338  243 63% 6 2949198 758426 53%
c i  3.54 548 1856 0  41  670  507 63% 5 2949198 758256 53%
c i  4.00 548 1461 0  41  837  656 62% 5 2949198 758171 53%
c i  4.35 548 1269 0  41  974  746 62% 4 2949198 752553 53%
c }  4.42 548 1243 0  41  993  751 62% 4 2949198 604734 42%
c 0  4.42 548 1243 0  41  993  751 62% 4 2949198 604734 42%
c 
c --- [ result ] -------------------------------------------------------------
c 
s UNSATISFIABLE
c 
c --- [ run-time profiling ] -------------------------------------------------
c 
c process time taken by individual solving procedures
c (percentage relative to process time for solving)
c 
c         3.79  100.00% search
c         3.53   93.11% unstable
c         0.62   16.44% parse
c         0.26    6.89% lucky
c         0.00    0.00% simplify
c   =================================
c         3.79   85.87% solve
c 
c last line shows process time for solving
c (percentage relative to total process time)
c 
c --- [ statistics ] ---------------------------------------------------------
c 
c chronological:               532        53.58 %  of conflicts
c conflicts:                   993       261.91    per second
c decisions:                 24681      6509.85    per second
c fixed:                    813517        56.93 %  of all variables
c learned:                     841        84.69 %  per conflict
c learned_lits:              23474       100.00 %  learned literals
c minimized:                     0         0.00 %  learned literals
c shrunken:                   9150        38.98 %  learned literals
c minishrunken:               3825        16.29 %  learned literals
c otfs:                         30         3.02 %  of conflict
c propagations:           42030362        11.09 M  per second
c restarts:                     41        24.22    interval
c subsumed:                     80         0.00 %  of all clauses
c strengthened:                 30         0.00 %  of all clauses
c 
c seconds are measured in process time for solving
c 
c --- [ resources ] ----------------------------------------------------------
c 
c total process time since initialization:         4.42    seconds
c total real time since initialization:            4.44    seconds
c maximum resident set size of process:          546.36    MB
c 
c --- [ shutting down ] ------------------------------------------------------
c 
c exit 20
